NAME: P-n20-k2
COMMENT: GVRP 
DIMENSION:  20 
VEHICLES:  2 
GVRP_SETS:  10 
CAPACITY:  160 
NODE_COORD_SECTION 
1 30.000000 40.000000
2 37.000000 52.000000
3 49.000000 49.000000
4 52.000000 64.000000
5 31.000000 62.000000
6 52.000000 33.000000
7 42.000000 41.000000
8 52.000000 41.000000
9 57.000000 58.000000
10 62.000000 42.000000
11 42.000000 57.000000
12 27.000000 68.000000
13 43.000000 67.000000
14 58.000000 48.000000
15 58.000000 27.000000
16 37.000000 69.000000
17 61.000000 33.000000
18 62.000000 63.000000
19 63.000000 69.000000
20 45.000000 35.000000
GVRP_SET_SECTION 
 1 19  18 -1
 2  15  17 -1
 3  12  5 -1
 4  3 -1
 5  13  16 -1
 6  10  14 -1
 7  20  6  7 -1
 8  2  11 -1
 9  9  4 -1
 10  8 -1
 DEMAND_SECTION
 1 11 
 2 22 
 3 15 
 4 30 
 5 12 
 6 7 
 7 19 
 8 13 
 9 22 
 10 15 
INTRA_CLUSTER_DISTANCE
10000000000000 10000000000000 10000000000000 10000000000000 10000000000000 10000000000000 10000000000000 10000000000000 10000000000000 10000000000000 10000000000000 10000000000000 10000000000000 10000000000000 10000000000000 10000000000000 10000000000000 10000000000000 10000000000000 10000000000000 
10000000000000 10000000000000 10000000000000 10000000000000 10000000000000 10000000000000 10000000000000 10000000000000 10000000000000 10000000000000 7 10000000000000 10000000000000 10000000000000 10000000000000 10000000000000 10000000000000 10000000000000 10000000000000 10000000000000 
10000000000000 10000000000000 10000000000000 10000000000000 10000000000000 10000000000000 10000000000000 10000000000000 10000000000000 10000000000000 10000000000000 10000000000000 10000000000000 10000000000000 10000000000000 10000000000000 10000000000000 10000000000000 10000000000000 10000000000000 
10000000000000 10000000000000 10000000000000 10000000000000 10000000000000 10000000000000 10000000000000 10000000000000 8 10000000000000 10000000000000 10000000000000 10000000000000 10000000000000 10000000000000 10000000000000 10000000000000 10000000000000 10000000000000 10000000000000 
10000000000000 10000000000000 10000000000000 10000000000000 10000000000000 10000000000000 10000000000000 10000000000000 10000000000000 10000000000000 10000000000000 7 10000000000000 10000000000000 10000000000000 10000000000000 10000000000000 10000000000000 10000000000000 10000000000000 
10000000000000 10000000000000 10000000000000 10000000000000 10000000000000 10000000000000 14 10000000000000 10000000000000 10000000000000 10000000000000 10000000000000 10000000000000 10000000000000 10000000000000 10000000000000 10000000000000 10000000000000 10000000000000 20 
10000000000000 10000000000000 10000000000000 10000000000000 10000000000000 14 10000000000000 10000000000000 10000000000000 10000000000000 10000000000000 10000000000000 10000000000000 10000000000000 10000000000000 10000000000000 10000000000000 10000000000000 10000000000000 20 
10000000000000 10000000000000 10000000000000 10000000000000 10000000000000 10000000000000 10000000000000 10000000000000 10000000000000 10000000000000 10000000000000 10000000000000 10000000000000 10000000000000 10000000000000 10000000000000 10000000000000 10000000000000 10000000000000 10000000000000 
10000000000000 10000000000000 10000000000000 8 10000000000000 10000000000000 10000000000000 10000000000000 10000000000000 10000000000000 10000000000000 10000000000000 10000000000000 10000000000000 10000000000000 10000000000000 10000000000000 10000000000000 10000000000000 10000000000000 
10000000000000 10000000000000 10000000000000 10000000000000 10000000000000 10000000000000 10000000000000 10000000000000 10000000000000 10000000000000 10000000000000 10000000000000 10000000000000 7 10000000000000 10000000000000 10000000000000 10000000000000 10000000000000 10000000000000 
10000000000000 7 10000000000000 10000000000000 10000000000000 10000000000000 10000000000000 10000000000000 10000000000000 10000000000000 10000000000000 10000000000000 10000000000000 10000000000000 10000000000000 10000000000000 10000000000000 10000000000000 10000000000000 10000000000000 
10000000000000 10000000000000 10000000000000 10000000000000 7 10000000000000 10000000000000 10000000000000 10000000000000 10000000000000 10000000000000 10000000000000 10000000000000 10000000000000 10000000000000 10000000000000 10000000000000 10000000000000 10000000000000 10000000000000 
10000000000000 10000000000000 10000000000000 10000000000000 10000000000000 10000000000000 10000000000000 10000000000000 10000000000000 10000000000000 10000000000000 10000000000000 10000000000000 10000000000000 10000000000000 6 10000000000000 10000000000000 10000000000000 10000000000000 
10000000000000 10000000000000 10000000000000 10000000000000 10000000000000 10000000000000 10000000000000 10000000000000 10000000000000 7 10000000000000 10000000000000 10000000000000 10000000000000 10000000000000 10000000000000 10000000000000 10000000000000 10000000000000 10000000000000 
10000000000000 10000000000000 10000000000000 10000000000000 10000000000000 10000000000000 10000000000000 10000000000000 10000000000000 10000000000000 10000000000000 10000000000000 10000000000000 10000000000000 10000000000000 10000000000000 7 10000000000000 10000000000000 10000000000000 
10000000000000 10000000000000 10000000000000 10000000000000 10000000000000 10000000000000 10000000000000 10000000000000 10000000000000 10000000000000 10000000000000 10000000000000 6 10000000000000 10000000000000 10000000000000 10000000000000 10000000000000 10000000000000 10000000000000 
10000000000000 10000000000000 10000000000000 10000000000000 10000000000000 10000000000000 10000000000000 10000000000000 10000000000000 10000000000000 10000000000000 10000000000000 10000000000000 10000000000000 7 10000000000000 10000000000000 10000000000000 10000000000000 10000000000000 
10000000000000 10000000000000 10000000000000 10000000000000 10000000000000 10000000000000 10000000000000 10000000000000 10000000000000 10000000000000 10000000000000 10000000000000 10000000000000 10000000000000 10000000000000 10000000000000 10000000000000 10000000000000 6 10000000000000 
10000000000000 10000000000000 10000000000000 10000000000000 10000000000000 10000000000000 10000000000000 10000000000000 10000000000000 10000000000000 10000000000000 10000000000000 10000000000000 10000000000000 10000000000000 10000000000000 10000000000000 6 10000000000000 10000000000000 
10000000000000 10000000000000 10000000000000 10000000000000 10000000000000 20 20 10000000000000 10000000000000 10000000000000 10000000000000 10000000000000 10000000000000 10000000000000 10000000000000 10000000000000 10000000000000 10000000000000 10000000000000 10000000000000 
EOF
